p cnf 27 63
a 17 23 0
e 1 2 3 4 5 6 7 8 9 10 11 12 13 14 15 16 18 19 20 21 22 24 25 26 27 0
-2 1 0
-2 -1 0
3 4 -5 0
-3 -4 -5 0
3 -4 5 0
-3 4 5 0
-6 -2 0
-6 5 0
2 -5 6 0
-7 8 -9 0
7 -8 -9 0
-7 -8 9 0
7 8 9 0
-7 9 -10 0
7 -9 -10 0
-7 -9 10 0
7 9 10 0
10 -11 -12 0
-10 11 -12 0
10 11 12 0
-10 -11 12 0
15 -13 0
15 14 0
13 -14 -15 0
16 -12 0
16 15 0
12 -15 -16 0
-17 14 0
-17 11 0
-14 -11 17 0
-9 18 -19 0
9 -18 -19 0
-9 -18 19 0
9 18 19 0
-20 17 0
-20 -19 0
-17 19 20 0
21 -16 0
21 -20 0
16 20 -21 0
23 3 0
23 22 0
-3 -22 -23 0
-21 23 -24 0
21 -23 -24 0
-21 -23 24 0
21 23 24 0
25 -6 0
25 24 0
6 -24 -25 0
-26 -14 0
-26 9 0
14 -9 26 0
-27 -25 0
-27 -26 0
25 26 27 0
-20 -21 -19 -2 -24 -26 7 0
-24 8 27 23 0
-14 -1 27 0
-11 18 -21 13 0
-11 18 -2 -8 -20 27 0
3 -21 -24 17 9 -12 0
27 0
